solution status: optimal solution found
objective value:                     184378.148142859
d11(0,0)                                            1 	(obj:0)
d11(1,1)                                            1 	(obj:0)
d11(2,3)                                            1 	(obj:0)
d11(2,5)                                            1 	(obj:0)
d11(3,7)                                            1 	(obj:0)
d11(3,8)                                            1 	(obj:0)
d11(3,9)                                            1 	(obj:0)
d11(3,10)                                           1 	(obj:0)
d11(3,11)                                           1 	(obj:0)
d11(3,13)                                           1 	(obj:0)
d11(3,14)                                           1 	(obj:0)
d11(4,15)                                           1 	(obj:0)
d11(4,17)                                           1 	(obj:0)
d11(4,19)                                           1 	(obj:0)
d11(4,21)                                           1 	(obj:0)
d11(4,23)                                           1 	(obj:0)
d11(4,25)                                           1 	(obj:0)
d11(4,27)                                           1 	(obj:0)
d11(4,29)                                           1 	(obj:0)
d12(4,16)                                           1 	(obj:0)
d12(4,18)                                           1 	(obj:0)
d12(4,20)                                           1 	(obj:0)
d12(4,22)                                           1 	(obj:0)
d12(4,24)                                           1 	(obj:0)
d12(4,26)                                           1 	(obj:0)
d12(4,28)                                           1 	(obj:0)
d12(4,30)                                           1 	(obj:0)
d12(5,32)                                           1 	(obj:0)
d12(5,34)                                           1 	(obj:0)
d12(5,36)                                           1 	(obj:0)
d12(5,38)                                           1 	(obj:0)
d12(5,40)                                           1 	(obj:0)
d12(5,42)                                           1 	(obj:0)
d12(5,44)                                           1 	(obj:0)
d12(5,46)                                           1 	(obj:0)
d12(5,48)                                           1 	(obj:0)
d12(5,50)                                           1 	(obj:0)
d12(5,52)                                           1 	(obj:0)
d12(5,54)                                           1 	(obj:0)
d12(5,56)                                           1 	(obj:0)
d12(5,58)                                           1 	(obj:0)
d12(5,60)                                           1 	(obj:0)
d12(5,62)                                           1 	(obj:0)
d21(3,7)                                            1 	(obj:0)
d21(4,15)                                           1 	(obj:0)
d21(4,16)                                           1 	(obj:0)
d21(4,17)                                           1 	(obj:0)
d21(4,19)                                           1 	(obj:0)
d21(4,23)                                           1 	(obj:0)
d21(5,31)                                           1 	(obj:0)
d21(5,32)                                           1 	(obj:0)
d21(5,33)                                           1 	(obj:0)
d21(5,34)                                           1 	(obj:0)
d21(5,35)                                           1 	(obj:0)
d21(5,36)                                           1 	(obj:0)
d21(5,37)                                           1 	(obj:0)
d21(5,39)                                           1 	(obj:0)
d21(5,40)                                           1 	(obj:0)
d21(5,41)                                           1 	(obj:0)
d21(5,47)                                           1 	(obj:0)
d21(5,48)                                           1 	(obj:0)
d21(5,49)                                           1 	(obj:0)
y2(5,40)                             1385.48851144895 	(obj:0)
y2(5,42)                             1385.48851144895 	(obj:0)
y2(5,44)                             1385.48851144895 	(obj:0)
y2(5,46)                             1385.48851144895 	(obj:0)
y2(5,48)                             1385.48851144895 	(obj:0)
y2(5,50)                             1385.48851144895 	(obj:0)
y2(5,52)                             1385.48851144895 	(obj:0)
y2(5,54)                             1385.48851144895 	(obj:0)
y2(5,56)                             1385.48851144895 	(obj:0)
y2(5,58)                             1385.48851144895 	(obj:0)
y2(5,60)                             1385.48851144895 	(obj:0)
y2(5,62)                             1385.48851144895 	(obj:0)
STE(1,1)                             8484.75010111115 	(obj:0)
STE(0,0)                                        11025 	(obj:0)
STE(1,2)                                        10143 	(obj:0)
STE(2,3)                             5944.50020222231 	(obj:0)
STE(2,4)                             7602.75010111115 	(obj:0)
STE(2,5)                             7602.75010111115 	(obj:0)
STE(2,6)                                         9261 	(obj:0)
STE(3,7)                             3404.25030333346 	(obj:0)
STE(3,8)                             5062.50020222231 	(obj:0)
STE(3,9)                             5062.50020222231 	(obj:0)
STE(3,10)                            6720.75010111115 	(obj:0)
STE(3,11)                            5062.50020222231 	(obj:0)
STE(3,12)                            6720.75010111115 	(obj:0)
STE(3,13)                            6720.75010111115 	(obj:0)
STE(3,14)                                        8379 	(obj:0)
STE(4,15)                            1975.50020222231 	(obj:0)
STE(4,16)                            3351.91259004765 	(obj:0)
STE(4,17)                            3633.75010111115 	(obj:0)
STE(4,18)                            5010.16248893649 	(obj:0)
STE(4,19)                            3633.75010111115 	(obj:0)
STE(4,20)                            5010.16248893649 	(obj:0)
STE(4,21)                                        5292 	(obj:0)
STE(4,22)                            6668.41238782534 	(obj:0)
STE(4,23)                            3633.75010111115 	(obj:0)
STE(4,24)                            5010.16248893649 	(obj:0)
STE(4,25)                                        5292 	(obj:0)
STE(4,26)                            6668.41238782534 	(obj:0)
STE(4,27)                                        5292 	(obj:0)
STE(4,28)                            6668.41238782534 	(obj:0)
STE(4,29)                            6950.24989888884 	(obj:0)
STE(4,30)                            8326.66228671418 	(obj:0)
STE(5,31)                            1093.50020222231 	(obj:0)
STE(5,32)                            2409.71428809881 	(obj:0)
STE(5,33)                            2469.91259004765 	(obj:0)
STE(5,34)                            3786.12667592415 	(obj:0)
STE(5,35)                            2751.75010111115 	(obj:0)
STE(5,36)                            4067.96418698766 	(obj:0)
STE(5,37)                            4128.16248893649 	(obj:0)
STE(5,38)                              5444.376574813 	(obj:0)
STE(5,39)                            2751.75010111115 	(obj:0)
STE(5,40)                            4067.96418698766 	(obj:0)
STE(5,41)                            4128.16248893649 	(obj:0)
STE(5,42)                              5444.376574813 	(obj:0)
STE(5,43)                                        4410 	(obj:0)
STE(5,44)                            5726.21408587651 	(obj:0)
STE(5,45)                            5786.41238782534 	(obj:0)
STE(5,46)                            7102.62647370184 	(obj:0)
STE(5,47)                            2751.75010111115 	(obj:0)
STE(5,48)                            4067.96418698766 	(obj:0)
STE(5,49)                            4128.16248893649 	(obj:0)
STE(5,50)                              5444.376574813 	(obj:0)
STE(5,51)                                        4410 	(obj:0)
STE(5,52)                            5726.21408587651 	(obj:0)
STE(5,53)                            5786.41238782534 	(obj:0)
STE(5,54)                            7102.62647370184 	(obj:0)
STE(5,55)                                        4410 	(obj:0)
STE(5,56)                            5726.21408587651 	(obj:0)
STE(5,57)                            5786.41238782534 	(obj:0)
STE(5,58)                            7102.62647370184 	(obj:0)
STE(5,59)                            6068.24989888884 	(obj:0)
STE(5,60)                            7384.46398476535 	(obj:0)
STE(5,61)                            7444.66228671418 	(obj:0)
STE(5,62)                            8760.87637259069 	(obj:0)
AVE(1)                                   3216.9117036 	(obj:0)
AVE(2)                                   3366.1541945 	(obj:0)
WB(3)                               0.104186420408951 	(obj:0)
AVE(3)                                   3515.3966854 	(obj:0)
WB(4)                                339.866686886638 	(obj:0)
AVE(4)                               3515.39406545826 	(obj:0)
WB(5)                                3167.15385943327 	(obj:0)
AVE(5)                               3167.15385943327 	(obj:0)
WG(1)                                    3216.9117036 	(obj:10)
WG(2)                                    3366.1541945 	(obj:10)
WG(3)                                3515.29249897959 	(obj:10)
WG(4)                                3175.52737857162 	(obj:10)
BG(1)                                979.380795379591 	(obj:10)
BG(2)                                830.138304479591 	(obj:10)
BG(3)                                             681 	(obj:10)
BG(5)                                2673.40993877551 	(obj:10)
y1(1,1)                              1492.42490899996 	(obj:0)
y1(2,3)                              1492.42490899996 	(obj:0)
y1(2,5)                              1492.42490899996 	(obj:0)
y1(3,7)                              1492.42490899996 	(obj:0)
y1(3,9)                              1492.42490899996 	(obj:0)
y1(3,11)                             1492.42490899996 	(obj:0)
y1(3,13)                             1492.42490899996 	(obj:0)
y1(4,15)                              492.07509100004 	(obj:0)
y1(4,17)                              492.07509100004 	(obj:0)
y1(4,19)                              492.07509100004 	(obj:0)
y1(4,21)                              492.07509100004 	(obj:0)
y1(4,23)                              492.07509100004 	(obj:0)
y1(4,25)                              492.07509100004 	(obj:0)
y1(4,27)                              492.07509100004 	(obj:0)
y1(4,29)                              492.07509100004 	(obj:0)
y2(4,16)                             873.328722857036 	(obj:0)
y2(4,18)                             873.328722857036 	(obj:0)
y2(4,20)                             873.328722857036 	(obj:0)
y2(4,22)                             873.328722857036 	(obj:0)
y2(4,24)                             873.328722857035 	(obj:0)
y2(4,26)                             873.328722857036 	(obj:0)
y2(4,28)                             873.328722857036 	(obj:0)
y2(4,30)                             873.328722857035 	(obj:0)
y2(5,32)                             1385.48851144895 	(obj:0)
y2(5,34)                             1385.48851144895 	(obj:0)
y2(5,36)                             1385.48851144895 	(obj:0)
y2(5,38)                             1385.48851144895 	(obj:0)
